(set-info :smt-lib-version 2.6)
(set-logic QF_SLIA)
(set-info :source |
Generated by: Wei-Cheng Wu
Generated on: 2019-07-28
Generator: Py-Conbyte
Application: Concolic execution of Python code
Target solver: CVC4, Z3, Z3str3, Z3-Trau
|)
(set-info :license "https://creativecommons.org/licenses/by/4.0/")
(set-info :category "industrial")
(set-info :status unknown)
(declare-fun data () String)


(assert (not ( = 5 4  )))

(assert (not ( = 5 3  )))

(assert ( str.suffixof "," ( str.substr data 0 ( - ( str.indexof data " " 0  ) 0  )  )  ))

(assert (not ( = ( str.len data  ) 0  )))
(assert ( < 5 5  ))


(check-sat)

(exit)
